
Gurobi 6.5.2 (win64) logging started 07/24/16 17:23:45


Gurobi 6.5.2 (win64) logging started 07/24/16 17:23:45

Optimize a model with 724 rows, 189 columns and 1595 nonzeros
Coefficient statistics:
  Matrix range    [1e+00, 1e+00]
  Objective range [2e+00, 3e+02]
  Bounds range    [1e+00, 1e+00]
  RHS range       [1e+00, 1e+00]
Found heuristic solution: objective -0
Presolve removed 686 rows and 97 columns
Presolve time: 0.00s
Presolved: 38 rows, 92 columns, 243 nonzeros
Found heuristic solution: objective 1356.0000000
Variable types: 0 continuous, 92 integer (92 binary)

Root relaxation: cutoff, 24 iterations, 0.00 seconds

    Nodes    |    Current Node    |     Objective Bounds      |     Work
 Expl Unexpl |  Obj  Depth IntInf | Incumbent    BestBd   Gap | It/Node Time

     0     0     cutoff    0      1356.00000 1356.99864  0.07%     -    0s

Explored 0 nodes (24 simplex iterations) in 0.00 seconds
Thread count was 8 (of 8 available processors)

Optimal solution found (tolerance 1.00e-04)
Best objective 1.356000000000e+03, best bound 1.356000000000e+03, gap 0.0%

Wrote requested result file 'H1\instance2\\Results2.lp'

